2 71
47 74
54 73
5 110
28 129
66 14
8 185
2 44
35 67
81 7
60 22
65 39
12 136
31 20
45 23
60 25
36 28
30 142
64 55
34 18
19 125
25 75
8 5
83 29
26 113
3 62
18 119
21 159
25 5
37 156
27 31
58 14
6 141
35 136
32 40
1 122
22 135
23 77
29 200
73 51
31 30
35 73
30 145
14 5
33 50
34 47
22 84
27 104
4 184
12 71
